40
1 0 7
2 0 1
2 1 8
3 0 3
3 1 8
3 2 1
4 0 9
4 1 8
4 2 3
4 3 4
5 0 3
5 1 10
5 2 6
5 3 3
5 4 6
6 0 10
6 1 1
6 2 8
6 3 1
6 4 10
6 5 8
7 0 2
7 1 5
7 2 4
7 3 10
7 4 3
7 5 4
7 6 3
8 0 8
8 1 3
8 2 5
8 3 1
8 4 2
8 5 7
8 6 7
8 7 6
9 0 6
9 1 8
9 2 6
9 3 6
9 4 9
9 5 8
9 6 9
9 7 4
9 8 2
10 0 4
10 1 5
10 2 8
10 3 4
10 4 10
10 5 10
10 6 6
10 7 2
10 8 8
10 9 4
11 0 5
11 1 1
11 2 1
11 3 3
11 4 7
11 5 4
11 6 1
11 7 7
11 8 4
11 9 6
11 10 7
12 0 8
12 1 5
12 2 6
12 3 9
12 4 3
12 5 5
12 6 5
12 7 10
12 8 2
12 9 5
12 10 4
12 11 10
13 0 7
13 1 6
13 2 6
13 3 3
13 4 5
13 5 9
13 6 1
13 7 6
13 8 6
13 9 4
13 10 2
13 11 8
13 12 10
14 0 9
14 1 8
14 2 2
14 3 8
14 4 9
14 5 2
14 6 1
14 7 2
14 8 5
14 9 3
14 10 9
14 11 7
14 12 9
14 13 10
15 0 4
15 1 5
15 2 7
15 3 4
15 4 4
15 5 8
15 6 3
15 7 6
15 8 6
15 9 3
15 10 10
15 11 2
15 12 4
15 13 1
15 14 5
16 0 6
16 1 2
16 2 1
16 3 7
16 4 2
16 5 7
16 6 1
16 7 9
16 8 1
16 9 3
16 10 7
16 11 10
16 12 9
16 13 7
16 14 1
16 15 4
17 0 8
17 1 7
17 2 5
17 3 7
17 4 10
17 5 8
17 6 2
17 7 6
17 8 9
17 9 6
17 10 8
17 11 7
17 12 5
17 13 10
17 14 9
17 15 7
17 16 5
18 0 6
18 1 7
18 2 4
18 3 8
18 4 1
18 5 9
18 6 7
18 7 9
18 8 7
18 9 8
18 10 7
18 11 8
18 12 6
18 13 9
18 14 10
18 15 3
18 16 10
18 17 5
19 0 9
19 1 6
19 2 5
19 3 7
19 4 2
19 5 3
19 6 7
19 7 5
19 8 4
19 9 2
19 10 8
19 11 8
19 12 3
19 13 2
19 14 6
19 15 10
19 16 9
19 17 7
19 18 8
20 0 4
20 1 3
20 2 10
20 3 6
20 4 3
20 5 9
20 6 5
20 7 2
20 8 6
20 9 4
20 10 2
20 11 5
20 12 3
20 13 1
20 14 1
20 15 8
20 16 6
20 17 8
20 18 8
20 19 5
21 0 7
21 1 7
21 2 5
21 3 1
21 4 8
21 5 9
21 6 6
21 7 9
21 8 4
21 9 5
21 10 5
21 11 3
21 12 2
21 13 8
21 14 8
21 15 3
21 16 8
21 17 2
21 18 2
21 19 1
21 20 8
22 0 2
22 1 2
22 2 7
22 3 10
22 4 5
22 5 1
22 6 10
22 7 8
22 8 5
22 9 4
22 10 2
22 11 1
22 12 8
22 13 1
22 14 9
22 15 1
22 16 3
22 17 4
22 18 4
22 19 1
22 20 8
22 21 9
23 0 7
23 1 6
23 2 7
23 3 5
23 4 9
23 5 2
23 6 7
23 7 7
23 8 10
23 9 10
23 10 1
23 11 10
23 12 9
23 13 10
23 14 6
23 15 2
23 16 8
23 17 10
23 18 2
23 19 5
23 20 1
23 21 3
23 22 10
24 0 2
24 1 4
24 2 10
24 3 4
24 4 9
24 5 8
24 6 8
24 7 5
24 8 6
24 9 9
24 10 6
24 11 1
24 12 10
24 13 4
24 14 8
24 15 5
24 16 9
24 17 8
24 18 5
24 19 3
24 20 9
24 21 8
24 22 7
24 23 9
25 0 6
25 1 1
25 2 8
25 3 3
25 4 10
25 5 8
25 6 2
25 7 6
25 8 1
25 9 4
25 10 1
25 11 1
25 12 2
25 13 9
25 14 4
25 15 5
25 16 3
25 17 7
25 18 2
25 19 7
25 20 1
25 21 2
25 22 8
25 23 7
25 24 8
26 0 9
26 1 4
26 2 4
26 3 3
26 4 4
26 5 6
26 6 2
26 7 5
26 8 10
26 9 2
26 10 7
26 11 9
26 12 10
26 13 3
26 14 2
26 15 8
26 16 10
26 17 6
26 18 2
26 19 5
26 20 2
26 21 1
26 22 8
26 23 7
26 24 10
26 25 10
27 0 4
27 1 7
27 2 3
27 3 8
27 4 6
27 5 2
27 6 7
27 7 5
27 8 3
27 9 8
27 10 10
27 11 1
27 12 10
27 13 2
27 14 4
27 15 8
27 16 6
27 17 9
27 18 2
27 19 2
27 20 2
27 21 10
27 22 7
27 23 9
27 24 3
27 25 6
27 26 2
28 0 3
28 1 3
28 2 1
28 3 6
28 4 8
28 5 7
28 6 6
28 7 2
28 8 2
28 9 5
28 10 1
28 11 3
28 12 2
28 13 4
28 14 10
28 15 1
28 16 8
28 17 10
28 18 9
28 19 3
28 20 6
28 21 3
28 22 4
28 23 10
28 24 9
28 25 1
28 26 10
28 27 8
29 0 9
29 1 8
29 2 3
29 3 6
29 4 4
29 5 5
29 6 6
29 7 3
29 8 4
29 9 10
29 10 7
29 11 8
29 12 5
29 13 1
29 14 10
29 15 3
29 16 10
29 17 9
29 18 6
29 19 2
29 20 7
29 21 5
29 22 10
29 23 4
29 24 8
29 25 4
29 26 3
29 27 8
29 28 4
30 0 7
30 1 7
30 2 8
30 3 3
30 4 6
30 5 9
30 6 8
30 7 9
30 8 1
30 9 7
30 10 5
30 11 7
30 12 10
30 13 2
30 14 10
30 15 9
30 16 3
30 17 2
30 18 8
30 19 5
30 20 7
30 21 1
30 22 10
30 23 6
30 24 5
30 25 2
30 26 2
30 27 2
30 28 7
30 29 1
31 0 6
31 1 7
31 2 10
31 3 1
31 4 3
31 5 4
31 6 4
31 7 6
31 8 9
31 9 9
31 10 1
31 11 8
31 12 5
31 13 5
31 14 2
31 15 6
31 16 2
31 17 5
31 18 3
31 19 6
31 20 4
31 21 8
31 22 9
31 23 8
31 24 7
31 25 8
31 26 7
31 27 4
31 28 7
31 29 2
31 30 7
32 0 5
32 1 1
32 2 9
32 3 2
32 4 8
32 5 6
32 6 9
32 7 10
32 8 5
32 9 9
32 10 7
32 11 1
32 12 3
32 13 8
32 14 5
32 15 4
32 16 3
32 17 7
32 18 8
32 19 10
32 20 7
32 21 9
32 22 7
32 23 1
32 24 6
32 25 7
32 26 3
32 27 1
32 28 8
32 29 7
32 30 8
32 31 10
33 0 5
33 1 5
33 2 8
33 3 2
33 4 3
33 5 8
33 6 10
33 7 8
33 8 8
33 9 4
33 10 9
33 11 4
33 12 1
33 13 9
33 14 10
33 15 8
33 16 9
33 17 7
33 18 1
33 19 7
33 20 2
33 21 5
33 22 9
33 23 5
33 24 1
33 25 9
33 26 3
33 27 5
33 28 3
33 29 1
33 30 5
33 31 7
33 32 5
34 0 3
34 1 10
34 2 1
34 3 7
34 4 6
34 5 1
34 6 3
34 7 2
34 8 9
34 9 10
34 10 2
34 11 3
34 12 3
34 13 2
34 14 6
34 15 7
34 16 6
34 17 8
34 18 10
34 19 4
34 20 2
34 21 3
34 22 1
34 23 3
34 24 9
34 25 5
34 26 6
34 27 9
34 28 4
34 29 9
34 30 9
34 31 8
34 32 7
34 33 8
35 0 6
35 1 7
35 2 4
35 3 8
35 4 4
35 5 4
35 6 3
35 7 8
35 8 6
35 9 2
35 10 10
35 11 6
35 12 6
35 13 10
35 14 1
35 15 1
35 16 7
35 17 6
35 18 3
35 19 3
35 20 3
35 21 7
35 22 6
35 23 5
35 24 7
35 25 5
35 26 2
35 27 1
35 28 1
35 29 7
35 30 7
35 31 8
35 32 4
35 33 1
35 34 10
36 0 10
36 1 7
36 2 7
36 3 10
36 4 7
36 5 3
36 6 9
36 7 1
36 8 2
36 9 10
36 10 5
36 11 1
36 12 1
36 13 10
36 14 3
36 15 9
36 16 5
36 17 2
36 18 9
36 19 6
36 20 4
36 21 9
36 22 6
36 23 5
36 24 4
36 25 4
36 26 6
36 27 8
36 28 6
36 29 2
36 30 3
36 31 6
36 32 3
36 33 2
36 34 5
36 35 8
37 0 2
37 1 5
37 2 7
37 3 9
37 4 6
37 5 7
37 6 9
37 7 8
37 8 3
37 9 10
37 10 10
37 11 1
37 12 1
37 13 3
37 14 2
37 15 8
37 16 10
37 17 6
37 18 3
37 19 1
37 20 10
37 21 2
37 22 4
37 23 3
37 24 6
37 25 10
37 26 10
37 27 7
37 28 6
37 29 4
37 30 1
37 31 8
37 32 2
37 33 2
37 34 6
37 35 5
37 36 5
38 0 8
38 1 2
38 2 10
38 3 2
38 4 6
38 5 3
38 6 6
38 7 9
38 8 5
38 9 3
38 10 1
38 11 2
38 12 10
38 13 5
38 14 9
38 15 1
38 16 2
38 17 2
38 18 7
38 19 9
38 20 6
38 21 9
38 22 10
38 23 3
38 24 9
38 25 9
38 26 1
38 27 6
38 28 2
38 29 4
38 30 4
38 31 7
38 32 6
38 33 7
38 34 8
38 35 2
38 36 10
38 37 5
39 0 7
39 1 1
39 2 7
39 3 7
39 4 7
39 5 5
39 6 2
39 7 2
39 8 6
39 9 10
39 10 6
39 11 2
39 12 1
39 13 4
39 14 5
39 15 8
39 16 4
39 17 7
39 18 7
39 19 5
39 20 4
39 21 5
39 22 5
39 23 5
39 24 4
39 25 1
39 26 8
39 27 3
39 28 8
39 29 6
39 30 9
39 31 8
39 32 4
39 33 8
39 34 3
39 35 2
39 36 10
39 37 7
39 38 1
